100 8
386 98
901 850
248 546
264 712
322 894
654 365
723 156
429 528
671 354
510 369
495 596
759 588
422 483
421 654
815 460
238 776
193 772
81 731
753 702
328 954
716 601
635 322
153 579
658 156
288 982
411 439
136 537
678 118
652 723
762 416
395 379
637 613
745 127
724 599
82 324
322 386
131 419
874 924
157 898
86 796
900 781
748 646
767 501
451 472
745 418
528 118
302 623
248 825
811 634
477 823
62 253
574 439
773 131
544 706
745 595
449 643
467 327
112 739
309 556
697 510
435 774
875 908
785 123
805 144
710 723
787 238
448 829
283 943
126 677
344 39
443 747
148 912
935 922
938 840
268 833
287 724
436 895
135 581
756 447
865 778
215 810
265 791
786 915
462 625
354 439
432 187
382 496
442 670
100 828
775 448
184 713
120 244
153 689
905 952
384 628
751 728
161 547
497 807
852 539
883 549
